
Gurobi 9.1.1 (linux64) logging started Thu Oct 21 13:23:49 2021

Changed value of parameter LogFile to results/max4cut_numv250/max4cut_numv250_band250_4_RP-MILO_log.txt
   Prev:   Default: 
Changed value of parameter LazyConstraints to 1
   Prev: 0  Min: 0  Max: 1  Default: 0
Gurobi Optimizer version 9.1.1 build v9.1.1rc0 (linux64)
Thread count: 20 physical cores, 40 logical processors, using up to 10 threads
Optimize a model with 16415 rows, 1235 columns and 62475 nonzeros
Model fingerprint: 0xb31d3ca7
Variable types: 0 continuous, 1235 integer (1235 binary)
Coefficient statistics:
  Matrix range     [1e+00, 1e+00]
  Objective range  [1e+00, 1e+00]
  Bounds range     [1e+00, 1e+00]
  RHS range        [1e+00, 2e+00]
Found heuristic solution: objective -0.0000000
Found heuristic solution: objective 28.0000000
Presolve removed 7809 rows and 0 columns
Presolve time: 0.05s
Presolved: 8606 rows, 1235 columns, 34400 nonzeros
Crushed 245 out of 245 user cuts to presolved model
Variable types: 0 continuous, 1235 integer (1235 binary)

Root relaxation: objective 3.382041e+02, 1491 iterations, 0.07 seconds

    Nodes    |    Current Node    |     Objective Bounds      |     Work
 Expl Unexpl |  Obj  Depth IntInf | Incumbent    BestBd   Gap | It/Node Time

     0     0  338.20408    0  716   28.00000  338.20408  1108%     -    0s
H    0     0                     254.0000000  338.20408  33.2%     -    0s
     0     0  309.20082    0  785  254.00000  309.20082  21.7%     -    0s
H    0     0                     255.0000000  309.20082  21.3%     -    0s
     0     0  309.02056    0  783  255.00000  309.02056  21.2%     -    0s
     0     0  309.01779    0  786  255.00000  309.01779  21.2%     -    0s
     0     0  301.37400    0  774  255.00000  301.37400  18.2%     -    0s
H    0     0                     256.0000000  301.37400  17.7%     -    0s
     0     0  300.48809    0  792  256.00000  300.48809  17.4%     -    0s
     0     0  300.34887    0  828  256.00000  300.34887  17.3%     -    0s
     0     0  300.30718    0  828  256.00000  300.30718  17.3%     -    0s
     0     0  300.30572    0  829  256.00000  300.30572  17.3%     -    1s
     0     0  296.93711    0  822  256.00000  296.93711  16.0%     -    1s
H    0     0                     257.0000000  296.93711  15.5%     -    1s
H    0     0                     265.0000000  296.93711  12.1%     -    1s
     0     0  296.41712    0  864  265.00000  296.41712  11.9%     -    1s
     0     0  296.36412    0  866  265.00000  296.36412  11.8%     -    1s
     0     0  296.35800    0  865  265.00000  296.35800  11.8%     -    1s
     0     0  295.16023    0  800  265.00000  295.16023  11.4%     -    1s
H    0     0                     266.0000000  295.16023  11.0%     -    1s
     0     0  295.04039    0  795  266.00000  295.04039  10.9%     -    1s
     0     0  295.03403    0  797  266.00000  295.03403  10.9%     -    1s
     0     0  294.58849    0  857  266.00000  294.58849  10.7%     -    1s
H    0     0                     271.0000000  294.58849  8.70%     -    1s
     0     0  294.52842    0  876  271.00000  294.52842  8.68%     -    1s
     0     0  294.52747    0  868  271.00000  294.52747  8.68%     -    1s
     0     0  294.18015    0  879  271.00000  294.18015  8.55%     -    1s
H    0     0                     272.0000000  294.18015  8.15%     -    1s
     0     0  294.11491    0  874  272.00000  294.11491  8.13%     -    1s
     0     0  294.09590    0  882  272.00000  294.09590  8.12%     -    1s
     0     0  294.08843    0  881  272.00000  294.08843  8.12%     -    2s
     0     0  293.84911    0  874  272.00000  293.84911  8.03%     -    2s
H    0     0                     279.0000000  293.84911  5.32%     -    2s
     0     0  293.80466    0  871  279.00000  293.80466  5.31%     -    2s
     0     0  293.79116    0  875  279.00000  293.79116  5.30%     -    2s
     0     0  293.61096    0  847  279.00000  293.61096  5.24%     -    2s
     0     0  293.57346    0  847  279.00000  293.57346  5.22%     -    2s
     0     0  293.56701    0  841  279.00000  293.56701  5.22%     -    2s
     0     0  293.46113    0  832  279.00000  293.46113  5.18%     -    2s
H    0     0                     281.0000000  293.46113  4.43%     -    2s
H    0     0                     282.0000000  293.46113  4.06%     -    2s
     0     0  293.44878    0  830  282.00000  293.44878  4.06%     -    2s
     0     0  293.40779    0  823  282.00000  293.40779  4.05%     -    2s
     0     0  293.38111    0  831  282.00000  293.38111  4.04%     -    2s
     0     0  293.37841    0  834  282.00000  293.37841  4.03%     -    2s
     0     0  293.26184    0  836  282.00000  293.26184  3.99%     -    2s
H    0     0                     283.0000000  293.26184  3.63%     -    2s
     0     0  293.26076    0  834  283.00000  293.26076  3.63%     -    2s
     0     0  293.22669    0  808  283.00000  293.22669  3.61%     -    2s
H    0     0                     285.0000000  293.22669  2.89%     -    2s
     0     0  293.22669    0  821  285.00000  293.22669  2.89%     -    2s
     0     0  293.18782    0  802  285.00000  293.18782  2.87%     -    3s
     0     0  293.18782    0  796  285.00000  293.18782  2.87%     -    3s
H    0     0                     286.0000000  293.18782  2.51%     -    3s
H    0     0                     288.0000000  293.18782  1.80%     -    3s
H    0     0                     289.0000000  293.18782  1.45%     -    3s
     0     2  293.18782    0  795  289.00000  293.18782  1.45%     -    3s
H   36    46                     290.0000000  292.91338  1.00%  55.4    3s
H   41    46                     291.0000000  292.91338  0.66%  55.2    3s
*  456   117              10     292.0000000  292.74888  0.26%  42.2    4s

Cutting planes:
  Gomory: 3
  MIR: 353
  Zero half: 271
  RLT: 93
  BQP: 2

Explored 467 nodes (28738 simplex iterations) in 4.45 seconds
Thread count was 10 (of 40 available processors)

Solution count 10: 292 291 290 ... 281

Optimal solution found (tolerance 0.00e+00)
Best objective 2.920000000000e+02, best bound 2.920000000000e+02, gap 0.0000%
